Total weight: 995.2638384560505
Route 1: 0 5 3 7 8 10 11 9 6 4 2 1 75 0 
Route 2: 0 13 17 18 19 15 16 14 12 0 
Route 3: 0 21 25 27 30 28 26 23 22 24 32 33 0 
Route 4: 0 20 29 34 36 39 38 37 35 31 46 42 43 0 
Route 5: 0 66 69 41 40 44 45 48 51 50 52 49 47 0 
Route 6: 0 55 54 53 56 58 60 59 57 0 
Route 7: 0 62 80 70 71 76 81 74 63 0 
Route 8: 0 90 87 83 82 78 73 77 79 72 61 64 68 0 
Route 9: 0 91 89 86 84 85 88 96 98 0 
Route 10: 0 67 65 95 94 92 93 97 100 99 0 
